
  22   10
  10   10   10   10   10   10   10   10   10   10

   0   0   0   0   0   0   0   0   0   0   0   5 2 6 14 20 21 
  10   0   0   0   0   0   0   0   0  10   0   2 9 3 
   5  10   0   0   0   0   0   0   0   0   0   1 4 
   5   0   0   0   0   0   0  10   0   0   0   3 19 18 5 
   9  10   0   0   0   0   0   0   0   0   0   3 17 11 7 
   8  10   0   0   0   0   0   0   0   0   0   3 11 10 9 
   6   0   0   0   0  10   0   0   0   0   0   1 8 
   4   0   0   0   0   0   0   0   0   0  10   2 16 10 
   2   0   0  10   0   0   0   0   0   0   0   2 16 12 
   5   0   0   0   0   0   0   0   0   0  10   1 12 
   2   0   0   0  10   0   0   0   0   0   0   1 12 
   1   0   0   0  10   0   0   0   0   0   0   1 13 
   3   0   0  10   0   0   0   0   0   0   0   1 15 
  10   0   0   0   0   0   0   0   0   0  10   1 15 
   2   0   0   0   0  10   0   0   0   0   0   1 22
   9   0   0   0   0  10   0   0   0   0   0   1 22
  10   0   0   0  10   0   0   0   0   0   0   1 22
   6   0   0   0   0  10   0   0   0   0   0   1 22
   9   0   0   0   0  10   0   0   0   0   0   1 22
   4   0   0   0   0   0   0   0  10   0   0   1 22
  10   0   0  10   0   0   0   0   0   0   0   1 22
   0   0   0   0   0   0   0   0   0   0   0   0 
